c File: data_files/evolved_graphs/g8013.col
c
c Auto generated graph
c
p edge 100 374
e 1 23
e 1 38
e 1 55
e 1 62
e 1 80
e 1 90
e 1 93
e 1 99
e 2 33
e 2 34
e 2 36
e 2 37
e 2 55
e 2 81
e 2 82
e 3 14
e 3 38
e 3 52
e 3 55
e 3 73
e 3 76
e 3 78
e 3 88
e 3 91
e 4 5
e 4 7
e 4 34
e 4 53
e 4 64
e 4 72
e 5 25
e 5 47
e 5 57
e 5 62
e 5 67
e 5 91
e 6 17
e 6 60
e 6 72
e 6 74
e 6 87
e 6 90
e 6 91
e 7 25
e 7 41
e 7 60
e 7 68
e 7 89
e 7 99
e 8 25
e 8 27
e 8 46
e 8 70
e 8 71
e 8 78
e 8 79
e 8 94
e 9 15
e 9 40
e 9 46
e 9 77
e 9 86
e 9 92
e 10 19
e 10 32
e 10 33
e 10 40
e 10 42
e 10 48
e 10 50
e 10 89
e 10 92
e 10 95
e 11 35
e 11 37
e 11 43
e 11 44
e 11 56
e 11 59
e 11 64
e 11 80
e 11 88
e 12 59
e 12 62
e 12 63
e 12 65
e 12 70
e 12 74
e 12 77
e 12 98
e 13 31
e 13 35
e 13 52
e 13 57
e 13 58
e 13 91
e 13 99
e 14 27
e 14 33
e 14 43
e 14 52
e 14 87
e 14 90
e 15 49
e 15 51
e 15 53
e 15 57
e 15 66
e 15 69
e 16 25
e 16 33
e 16 35
e 16 42
e 16 47
e 16 53
e 16 63
e 16 72
e 16 86
e 17 25
e 17 32
e 17 51
e 17 58
e 17 88
e 18 29
e 18 34
e 18 35
e 18 41
e 18 42
e 18 44
e 18 50
e 18 58
e 18 61
e 18 75
e 19 37
e 19 40
e 19 41
e 19 58
e 19 71
e 19 82
e 19 94
e 20 27
e 20 28
e 20 31
e 20 46
e 20 50
e 20 53
e 20 56
e 20 76
e 21 36
e 21 39
e 21 42
e 21 50
e 21 51
e 21 67
e 21 71
e 22 31
e 22 40
e 22 49
e 22 55
e 22 62
e 22 63
e 22 71
e 22 87
e 23 32
e 23 36
e 23 42
e 23 45
e 23 52
e 23 55
e 23 71
e 23 77
e 24 25
e 24 32
e 24 35
e 24 36
e 24 38
e 24 50
e 24 65
e 24 72
e 24 100
e 25 40
e 25 50
e 25 59
e 25 90
e 26 43
e 26 48
e 26 53
e 26 54
e 26 60
e 26 61
e 27 29
e 27 39
e 27 61
e 27 64
e 27 67
e 27 70
e 28 31
e 28 38
e 28 61
e 28 63
e 28 83
e 28 84
e 29 41
e 29 48
e 29 59
e 29 72
e 29 76
e 31 33
e 31 44
e 31 69
e 31 72
e 32 34
e 32 96
e 33 45
e 33 48
e 33 69
e 34 64
e 34 91
e 34 97
e 34 99
e 35 41
e 35 66
e 35 91
e 36 63
e 36 66
e 36 67
e 36 95
e 36 99
e 37 41
e 37 44
e 37 51
e 37 54
e 38 46
e 38 98
e 39 50
e 39 51
e 39 62
e 39 85
e 39 95
e 39 98
e 40 45
e 40 90
e 40 98
e 41 63
e 41 66
e 41 87
e 41 96
e 42 44
e 42 53
e 42 64
e 43 49
e 43 56
e 43 68
e 43 77
e 44 61
e 44 78
e 44 80
e 45 55
e 45 84
e 46 48
e 46 57
e 46 73
e 46 85
e 47 54
e 47 73
e 47 75
e 47 77
e 47 84
e 47 95
e 48 54
e 48 62
e 48 66
e 48 83
e 49 64
e 49 95
e 49 96
e 49 100
e 50 74
e 51 53
e 51 58
e 51 70
e 52 54
e 52 85
e 53 72
e 53 85
e 55 62
e 56 57
e 56 79
e 56 88
e 56 97
e 56 98
e 57 82
e 57 87
e 57 88
e 58 73
e 58 99
e 59 65
e 59 69
e 59 76
e 59 85
e 60 71
e 60 88
e 60 95
e 60 96
e 61 89
e 61 97
e 62 67
e 62 86
e 63 68
e 63 69
e 63 70
e 63 86
e 64 83
e 65 75
e 65 92
e 65 94
e 65 96
e 65 97
e 66 94
e 67 96
e 68 76
e 68 85
e 68 86
e 68 91
e 68 94
e 69 93
e 69 96
e 70 95
e 71 76
e 71 89
e 73 74
e 73 79
e 73 89
e 73 92
e 73 93
e 74 77
e 74 89
e 74 91
e 74 100
e 75 80
e 75 88
e 75 89
e 75 90
e 75 94
e 76 91
e 77 78
e 77 83
e 78 83
e 78 99
e 78 100
e 79 82
e 79 84
e 79 90
e 79 92
e 80 81
e 80 90
e 80 100
e 81 82
e 81 92
e 81 93
e 81 98
e 81 100
e 82 85
e 83 93
e 84 86
e 84 87
e 84 100
e 86 97
e 86 100
e 87 93
e 88 94
e 91 94
e 93 97
e 95 97
